50
1000
295
285
276
275
270
268
266
265
257
254
246
242
242
241
241
236
231
231
229
224
223
216
215
209
207
200
195
194
178
177
177
159
150
149
146
143
143
141
139
139
136
131
130
125
116
115
113
113
103
102
